2123.48
0 76 133 132 125 124 123 122 126 127 128 129 116 131 119 130 6 0 
0 57 117 113 112 121 120 109 114 115 0 
0 91 82 87 89 92 93 94 38 96 97 98 100 99 101 104 103 102 15 86 84 85 111 110 108 107 106 0 
0 72 77 64 78 95 83 0 
0 66 71 74 1 49 62 52 51 50 54 55 56 105 58 61 31 34 79 67 68 69 70 81 65 44 0 
0 21 25 26 27 28 29 45 39 37 36 35 40 43 41 42 10 12 11 8 9 14 88 13 16 90 59 23 24 22 47 32 48 46 17 18 19 20 33 0 
0 73 134 75 60 30 53 3 2 4 5 7 63 118 80 0 
